Input file: instance_1.lp
Input data:
num_squadre(2).
player(1, attaccante, centrocampista).
player(2, portiere, centrocampista).
player(3, portiere, centrocampista).
player(4, attaccante, centrocampista).
player(5, attaccante, difensore).
player(6, difensore, portiere).
player(7, attaccante, portiere).
player(8, portiere, attaccante).
player(9, attaccante, centrocampista).
player(10, difensore, attaccante).
player(11, portiere, centrocampista).
player(12, difensore, portiere).
player(13, difensore, portiere).
player(14, portiere, difensore).
player(15, portiere, difensore).
player(16, difensore, portiere).
player(17, difensore, centrocampista).
player(18, difensore, attaccante).
player(19, difensore, centrocampista).
player(20, attaccante, portiere).
player(21, attaccante, centrocampista).
different_team(1, 2).
different_team(12, 15).

Output Clingo:
clingo version 5.7.1
Reading from ...ed-Reasoning-Project\Clingo\implASP.lp ...
Solving...
Answer: 1
assigned(1,2,centrocampista) assigned(2,1,portiere) assigned(3,2,portiere) assigned(4,1,attaccante) assigned(5,2,attaccante) assigned(6,1,difensore) assigned(7,2,attaccante) assigned(8,2,attaccante) assigned(9,1,centrocampista) assigned(10,2,attaccante) assigned(11,2,centrocampista) assigned(12,1,difensore) assigned(13,2,difensore) assigned(14,1,difensore) assigned(15,2,difensore) assigned(16,1,difensore) assigned(17,1,centrocampista) assigned(18,1,difensore) assigned(19,1,difensore) assigned(20,2,attaccante) assigned(21,1,centrocampista) total_penalty(1)
Optimization: 1
Answer: 1
assigned(1,1,attaccante) assigned(2,2,centrocampista) assigned(3,1,centrocampista) assigned(4,2,attaccante) assigned(5,2,difensore) assigned(6,2,difensore) assigned(7,1,portiere) assigned(8,1,attaccante) assigned(9,2,centrocampista) assigned(10,1,difensore) assigned(11,1,centrocampista) assigned(12,2,difensore) assigned(13,2,difensore) assigned(14,1,difensore) assigned(15,1,difensore) assigned(16,2,difensore) assigned(17,1,difensore) assigned(18,1,difensore) assigned(19,2,centrocampista) assigned(20,2,portiere) assigned(21,2,attaccante) total_penalty(1)
Optimization: 1
OPTIMUM FOUND

Models       : 2+
  Optimum    : yes
Optimization : 1
Calls        : 1
Time         : 0.013s (Solving: 0.01s 1st Model: 0.00s Unsat: 0.00s)
CPU Time     : 0.000s

Tempo di esecuzione Clingo: 0.04 secondi
